c type2_size1_CNF
c num. vars.: 7
c num. clauses.: 17
p cnf 7 17
e 1 0
a 2 0
e 3 4 5 6 7 0
-1 -2 3 0
1 -3 0
2 -3 0
-1 -2 4 0
1 -4 0
2 -4 0
-1 -2 5 0
1 -5 0
2 -5 0
4 5 0 -6 0
-4 6 0
-5 6 0
0 6 0
-1 -2 7 0
1 -7 0
2 -7 0
-6 0